NAME : a280
COMMENT : drilling problem (Ludwig)
TYPE : TSP
DIMENSION: 280
EDGE_WEIGHT_TYPE : EUC_2D
NODE_COORD_SECTION
1 134 216
2 229 226 
3 177 174
4 217 66
5 253 119
6 287 60
7 320 308
8 329 154
9 347 142
10 362 130
11 390 118 
12 493 386 
13 404 294
14 353 234
15 427 171
EOF